
  32    1
  10

   0   0   6 2 3 4 6 7 12 
   1   1   6 15 14 13 11 8 5 
   5   1   6 21 18 15 14 11 9 
   8   2   5 21 17 15 14 13 
   9   3   4 21 19 17 10 
   2   4   2 13 10 
   5   3   6 31 30 21 20 19 17 
  10   1   5 31 20 19 17 16 
  10   2   5 31 24 20 19 16 
   8   4   6 31 29 24 23 20 16 
  10   2   4 31 23 17 16 
   1   4   4 31 30 21 15 
   6   2   3 27 20 19 
   8   2   3 31 23 16 
   9   2   5 29 28 27 24 22 
   3   3   4 30 27 26 22 
  10   1   4 29 28 27 22 
   9   1   4 30 28 25 24 
   4   2   3 29 23 22 
   9   2   2 28 22 
   8   2   2 27 22 
   8   1   1 25 
   9   2   1 26 
  10   3   1 26 
  10   2   1 32
   3   1   1 32
   6   1   1 32
   9   2   1 32
   5   2   1 32
   6   1   1 32
   2   1   1 32
   0   0   0 
